<number of tasks>
58

<cycle time>
71

<task times>
1 10
2 53
3 41
4 36
5 35
6 17
7 34
8 23
9 14
10 52
11 33
12 34
13 12
14 52
15 12
16 33
17 44
18 7
19 15
20 13
21 29
22 37
23 43
24 23
25 24
26 9
27 16
28 12
29 26
30 22
31 51
32 47
33 34
34 23
35 12
36 52
37 12
38 33
39 44
40 7
41 15
42 13
43 29
44 37
45 43
46 23
47 24
48 9
49 16
50 12
51 26
52 12
53 52
54 12
55 33
56 44
57 7
58 15

<precedence relations>
1,9
2,25
3,21
3,22
4,10
5,36
6,23
6,24
7,43
8,44
9,11
11,13
11,14
11,15
12,17
13,17
14,17
15,17
16,18
17,20
18,19
19,23
20,21
20,25
21,26
21,44
22,27
23,31
24,31
25,38
26,29
27,30
28,32
28,33
29,31
30,34
31,36
32,45
33,35
34,36
35,43
36,37
36,38
37,39
37,40
37,41
38,52
39,43
40,43
41,42
42,43
43,45
44,45
45,46
45,48
45,49
46,47
46,50
47,51
48,55
49,58
50,58
51,52
52,53
53,54
54,55
54,56
55,57
56,57
57,58

<setup times forward>
1,2:7
1,3:3
1,4:3
1,5:2
1,6:4
1,8:6
1,9:4
1,10:3
1,12:1
1,16:8
1,18:2
1,19:2
1,22:6
1,23:4
1,24:2
1,27:10
1,28:2
1,32:6
1,35:10
2,1:7
2,3:10
2,4:4
2,5:5
2,6:11
2,7:7
2,8:13
2,9:3
2,10:10
2,11:15
2,12:8
2,13:5
2,14:2
2,15:16
2,16:15
2,18:9
2,19:5
2,20:2
2,21:2
2,22:13
2,23:3
2,24:9
2,25:10
2,26:14
2,27:17
2,28:5
2,29:15
2,30:7
2,31:2
2,32:1
2,33:7
2,34:7
2,35:17
2,36:5
2,37:15
2,39:9
2,40:14
2,41:15
2,42:17
2,43:6
2,44:8
2,45:10
2,46:3
2,47:12
2,48:13
2,49:10
2,50:3
2,51:6
3,1:3
3,2:10
3,4:6
3,5:5
3,6:1
3,7:3
3,8:3
3,9:7
3,11:5
3,12:2
3,13:5
3,14:8
3,15:6
3,16:5
3,17:10
3,18:1
3,19:5
3,20:8
3,21:8
3,22:3
3,23:7
3,24:1
3,28:5
3,32:9
3,33:3
3,35:7
4,1:3
4,2:4
4,3:6
4,5:1
4,6:7
4,7:3
4,8:9
4,9:1
4,10:6
4,11:11
4,12:4
4,13:1
4,14:2
4,15:12
4,16:11
4,17:4
4,18:5
4,19:1
4,20:2
4,21:2
4,22:9
4,23:1
4,24:5
4,25:6
4,26:10
4,27:13
4,28:1
4,29:11
4,30:3
4,31:2
4,32:3
4,33:3
4,34:3
4,35:13
4,36:1
4,37:11
4,38:4
4,39:5
4,40:10
4,41:11
4,42:13
4,43:2
4,44:4
4,45:6
4,46:1
4,47:8
4,48:9
4,49:6
4,50:1
4,51:2
4,52:10
4,53:2
4,54:11
4,56:3
4,57:6
4,58:13
5,1:2
5,2:5
5,3:5
5,4:1
5,6:6
5,7:2
5,8:8
5,9:2
5,10:5
5,11:10
5,12:3
5,14:3
5,15:11
5,16:10
5,17:5
5,18:4
5,20:3
5,21:3
5,22:8
5,23:2
5,24:4
5,25:5
5,26:9
5,27:12
5,29:10
5,30:2
5,31:3
5,32:4
5,33:2
5,34:2
5,35:12
5,44:3
6,1:4
6,2:11
6,3:1
6,4:7
6,5:6
6,7:4
6,8:2
6,9:8
6,10:1
6,11:4
6,12:3
6,13:6
6,14:9
6,15:5
6,16:4
6,17:11
6,18:2
6,19:6
6,20:9
6,21:9
6,22:2
6,23:8
6,24:2
6,25:1
6,26:3
6,27:6
6,28:6
6,29:4
6,30:4
6,32:10
6,33:4
6,34:4
6,35:6
6,44:3
7,2:7
7,3:3
7,4:3
7,5:2
7,6:4
7,8:6
7,9:4
7,10:3
7,11:8
7,12:1
7,13:2
7,14:5
7,15:9
7,16:8
7,17:7
7,18:2
7,19:2
7,20:5
7,21:5
7,22:6
7,23:4
7,24:2
7,25:3
7,26:7
7,27:10
7,28:2
7,29:8
7,31:5
7,32:6
7,35:10
7,36:2
7,37:8
7,38:7
7,39:2
7,40:7
7,41:8
7,42:10
7,43:1
7,44:1
8,1:6
8,2:13
8,3:3
8,4:9
8,5:8
8,6:2
8,7:6
8,9:10
8,10:3
8,11:2
8,12:5
8,13:8
8,14:11
8,15:3
8,16:2
8,17:13
8,18:4
8,19:8
8,20:11
8,21:11
8,23:10
8,24:4
8,25:3
8,26:1
8,27:4
8,28:8
8,29:2
8,30:6
8,31:11
8,32:12
8,33:6
8,34:6
8,35:4
8,36:8
8,37:2
8,38:13
8,39:4
8,40:1
8,41:2
8,42:4
8,43:7
8,44:5
9,2:3
9,3:7
9,4:1
9,5:2
9,6:8
9,7:4
9,8:10
9,10:7
9,11:12
9,12:5
9,16:12
9,18:6
9,19:2
9,22:10
9,24:6
9,27:14
9,28:2
9,30:4
9,32:2
9,33:4
9,34:4
9,35:14
10,1:3
10,2:10
10,5:5
10,6:1
10,7:3
10,8:3
10,9:7
10,11:5
10,12:2
10,13:5
10,14:8
10,15:6
10,16:5
10,17:10
10,18:1
10,19:5
10,20:8
10,21:8
10,22:3
10,23:7
10,24:1
10,26:4
10,27:7
10,28:5
10,29:5
10,30:3
10,31:8
10,32:9
10,33:3
10,34:3
10,35:7
10,36:5
10,37:5
10,38:10
10,39:1
10,40:4
10,41:5
10,42:7
10,43:4
10,44:2
10,46:7
10,47:2
10,48:3
10,50:7
10,51:4
10,52:4
10,53:4
10,54:5
10,55:6
10,56:9
10,58:7
11,2:15
11,3:5
11,4:11
11,5:10
11,6:4
11,7:8
11,8:2
11,10:5
11,12:7
11,13:10
11,14:13
11,15:1
11,18:6
11,19:10
11,22:2
11,23:12
11,24:6
11,27:2
11,28:10
11,30:8
11,32:14
11,33:8
11,34:8
11,35:2
12,1:1
12,2:8
12,3:2
12,4:4
12,5:3
12,6:3
12,7:1
12,8:5
12,9:5
12,10:2
12,11:7
12,13:3
12,14:6
12,15:8
12,16:7
12,17:8
12,18:1
12,19:3
12,22:5
12,23:5
12,24:1
12,27:9
12,28:3
12,30:1
12,32:7
12,33:1
12,34:1
12,35:9
13,2:5
13,3:5
13,4:1
13,6:6
13,7:2
13,8:8
13,10:5
13,12:3
13,14:3
13,15:11
13,16:10
13,17:5
13,18:4
13,22:8
13,23:2
13,24:4
13,27:12
13,30:2
13,32:4
13,33:2
13,34:2
13,35:12
14,2:2
14,3:8
14,4:2
14,5:3
14,6:9
14,7:5
14,8:11
14,10:8
14,12:6
14,13:3
14,15:14
14,16:13
14,17:2
14,18:7
14,19:3
14,22:11
14,23:1
14,24:7
14,27:15
14,28:3
14,30:5
14,32:1
14,33:5
14,34:5
14,35:15
15,2:16
15,3:6
15,4:12
15,5:11
15,6:5
15,7:9
15,8:3
15,10:6
15,12:8
15,13:11
15,14:14
15,16:1
15,17:16
15,18:7
15,19:11
15,22:3
15,23:13
15,24:7
15,27:1
15,28:11
15,30:9
15,32:15
15,33:9
15,34:9
15,35:1
16,1:8
16,2:15
16,3:5
16,4:11
16,5:10
16,6:4
16,7:8
16,8:2
16,9:12
16,10:5
16,12:7
16,13:10
16,14:13
16,15:1
16,17:15
16,18:6
16,20:13
16,21:13
16,22:2
16,24:6
16,25:5
16,26:1
16,27:2
16,28:10
16,30:8
16,32:14
16,33:8
16,34:8
16,35:2
16,44:7
17,3:10
17,4:4
17,5:5
17,6:11
17,7:7
17,8:13
17,10:10
17,16:15
17,18:9
17,19:5
17,20:2
17,22:13
17,23:3
17,24:9
17,27:17
17,28:5
17,30:7
17,32:1
17,33:7
17,34:7
17,35:17
18,1:2
18,2:9
18,3:1
18,4:5
18,5:4
18,6:2
18,7:2
18,8:4
18,9:6
18,10:1
18,11:6
18,12:1
18,13:4
18,14:7
18,15:7
18,17:9
18,19:4
18,20:7
18,21:7
18,22:4
18,25:1
18,26:5
18,27:8
18,28:4
18,29:6
18,30:2
18,32:8
18,33:2
18,34:2
18,35:8
18,44:1
19,1:2
19,2:5
19,3:5
19,4:1
19,6:6
19,7:2
19,8:8
19,9:2
19,10:5
19,11:10
19,12:3
19,14:3
19,15:11
19,17:5
19,20:3
19,21:3
19,22:8
19,23:2
19,24:4
19,25:5
19,26:9
19,27:12
19,29:10
19,30:2
19,32:4
19,33:2
19,34:2
19,35:12
19,44:3
20,2:2
20,3:8
20,4:2
20,5:3
20,6:9
20,7:5
20,8:11
20,10:8
20,16:13
20,18:7
20,19:3
20,22:11
20,23:1
20,24:7
20,25:8
20,27:15
20,28:3
20,30:5
20,32:1
20,33:5
20,34:5
20,35:15
21,2:2
21,4:2
21,5:3
21,6:9
21,7:5
21,8:11
21,10:8
21,16:13
21,18:7
21,19:3
21,22:11
21,23:1
21,24:7
21,25:8
21,26:12
21,27:15
21,28:3
21,30:5
21,32:1
21,33:5
21,34:5
21,35:15
21,44:6
22,1:6
22,2:13
22,4:9
22,5:8
22,6:2
22,7:6
22,9:10
22,10:3
22,11:2
22,12:5
22,13:8
22,14:11
22,15:3
22,16:2
22,17:13
22,18:4
22,19:8
22,20:11
22,21:11
22,23:10
22,24:4
22,25:3
22,26:1
22,27:4
22,28:8
22,29:2
22,31:11
22,32:12
22,33:6
22,35:4
22,44:5
23,1:4
23,2:3
23,3:7
23,4:1
23,5:2
23,7:4
23,8:10
23,10:7
23,11:12
23,12:5
23,13:2
23,14:1
23,15:13
23,17:3
23,20:1
23,21:1
23,22:10
23,24:6
23,25:7
23,26:11
23,27:14
23,28:2
23,29:12
23,30:4
23,31:1
23,32:2
23,33:4
23,34:4
23,35:14
23,44:5
24,1:2
24,2:9
24,3:1
24,4:5
24,5:4
24,7:2
24,8:4
24,9:6
24,10:1
24,11:6
24,12:1
24,13:4
24,14:7
24,15:7
24,16:6
24,17:9
24,19:4
24,20:7
24,21:7
24,22:4
24,23:6
24,25:1
24,26:5
24,27:8
24,28:4
24,29:6
24,30:2
24,31:7
24,32:8
24,33:2
24,34:2
24,35:8
24,44:1
25,4:6
25,5:5
25,6:1
25,7:3
25,8:3
25,16:5
25,18:1
25,19:5
25,21:8
25,22:3
25,23:7
25,24:1
25,26:4
25,27:7
25,28:5
25,29:5
25,30:3
25,31:8
25,32:9
25,33:3
25,34:3
25,35:7
25,36:5
25,37:5
25,38:10
25,39:1
25,40:4
25,41:5
25,42:7
25,43:4
25,44:2
25,46:7
25,47:2
25,48:3
25,50:7
25,51:4
26,2:14
26,4:10
26,5:9
26,6:3
26,7:7
26,8:1
26,10:4
26,16:1
26,18:5
26,19:9
26,22:1
26,23:11
26,24:5
26,25:4
26,27:3
26,28:9
26,29:1
26,30:7
26,32:13
26,33:7
26,34:7
26,35:3
26,44:6
27,1:10
27,2:17
27,4:13
27,5:12
27,6:6
27,7:10
27,8:4
27,9:14
27,10:7
27,11:2
27,12:9
27,13:12
27,14:15
27,15:1
27,16:2
27,17:17
27,18:8
27,19:12
27,20:15
27,21:15
27,23:14
27,24:8
27,25:7
27,26:3
27,28:12
27,29:2
27,30:10
27,31:15
27,32:16
27,33:10
27,44:9
28,1:2
28,2:5
28,3:5
28,4:1
28,6:6
28,7:2
28,8:8
28,9:2
28,10:5
28,11:10
28,12:3
28,14:3
28,15:11
28,16:10
28,17:5
28,18:4
28,20:3
28,21:3
28,22:8
28,23:2
28,24:4
28,25:5
28,26:9
28,27:12
28,29:10
28,30:2
28,31:3
28,32:4
28,33:2
28,34:2
28,37:10
28,38:5
28,39:4
28,40:9
28,41:10
28,42:12
28,44:3
29,2:15
29,4:11
29,5:10
29,6:4
29,7:8
29,8:2
29,10:5
29,18:6
29,19:10
29,22:2
29,23:12
29,24:6
29,25:5
29,27:2
29,28:10
29,30:8
29,31:13
29,32:14
29,33:8
29,34:8
29,35:2
29,44:7
30,2:7
30,4:3
30,5:2
30,6:4
30,8:6
30,9:4
30,10:3
30,11:8
30,12:1
30,13:2
30,14:5
30,15:9
30,16:8
30,17:7
30,18:2
30,19:2
30,20:5
30,21:5
30,23:4
30,24:2
30,25:3
30,26:7
30,28:2
30,29:8
30,31:5
30,32:6
30,35:10
30,44:1
31,2:2
31,4:2
31,5:3
31,7:5
31,8:11
31,10:8
31,22:11
31,25:8
31,27:15
31,28:3
31,30:5
31,32:1
31,33:5
31,34:5
31,35:15
31,36:3
31,44:6
32,1:6
32,2:1
32,3:9
32,4:3
32,5:4
32,6:10
32,7:6
32,8:12
32,9:2
32,10:9
32,11:14
32,12:7
32,13:4
32,14:1
32,15:15
32,16:14
32,17:1
32,18:8
32,19:4
32,20:1
32,21:1
32,22:12
32,23:2
32,24:8
32,25:9
32,26:13
32,27:16
32,29:14
32,30:6
32,31:1
32,33:6
32,34:6
32,35:16
32,36:4
32,37:14
32,38:1
32,39:8
32,40:13
32,41:14
32,42:16
32,43:5
32,44:7
32,45:9
33,2:7
33,3:3
33,4:3
33,5:2
33,6:4
33,8:6
33,9:4
33,10:3
33,11:8
33,12:1
33,13:2
33,14:5
33,15:9
33,16:8
33,17:7
33,18:2
33,19:2
33,20:5
33,21:5
33,22:6
33,23:4
33,24:2
33,25:3
33,26:7
33,27:10
33,29:8
33,31:5
33,32:6
33,35:10
33,36:2
33,37:8
33,38:7
33,39:2
33,40:7
33,41:8
33,42:10
33,44:1
34,2:7
34,4:3
34,5:2
34,6:4
34,8:6
34,9:4
34,10:3
34,11:8
34,12:1
34,13:2
34,14:5
34,15:9
34,16:8
34,17:7
34,18:2
34,19:2
34,20:5
34,21:5
34,23:4
34,24:2
34,25:3
34,26:7
34,28:2
34,29:8
34,31:5
34,32:6
34,35:10
34,36:2
34,44:1
35,1:10
35,2:17
35,3:7
35,4:13
35,5:12
35,6:6
35,7:10
35,8:4
35,9:14
35,10:7
35,11:2
35,12:9
35,13:12
35,14:15
35,15:1
35,16:2
35,17:17
35,18:8
35,19:12
35,20:15
35,21:15
35,22:4
35,23:14
35,24:8
35,25:7
35,26:3
35,29:2
35,30:10
35,31:15
35,32:16
35,34:10
35,36:12
35,37:2
35,38:17
35,39:8
35,40:3
35,41:2
35,43:11
35,44:9
36,2:5
36,4:1
36,7:2
36,8:8
36,10:5
36,25:5
36,32:4
36,33:2
36,35:12
36,37:10
36,38:5
36,44:3
37,2:15
37,4:11
37,7:8
37,8:2
37,10:5
37,25:5
37,28:10
37,32:14
37,33:8
37,35:2
37,38:15
37,39:6
37,40:1
37,44:7
38,4:4
38,7:7
38,8:13
38,10:10
38,28:5
38,32:1
38,33:7
38,35:17
38,37:15
38,39:9
38,40:14
38,41:15
38,42:17
38,43:6
38,44:8
38,45:10
38,46:3
38,47:12
38,48:13
38,49:10
38,50:3
38,51:6
38,52:14
39,2:9
39,4:5
39,7:2
39,8:4
39,10:1
39,25:1
39,28:4
39,32:8
39,33:2
39,35:8
39,38:9
39,40:5
39,41:6
39,42:8
39,43:3
39,44:1
40,2:14
40,4:10
40,7:7
40,8:1
40,10:4
40,25:4
40,28:9
40,32:13
40,33:7
40,35:3
40,38:14
40,39:5
40,41:1
40,42:3
40,43:8
40,44:6
41,2:15
41,4:11
41,7:8
41,8:2
41,10:5
41,25:5
41,28:10
41,32:14
41,33:8
41,35:2
41,38:15
41,39:6
41,40:1
41,42:2
41,44:7
42,2:17
42,4:13
42,7:10
42,8:4
42,10:7
42,25:7
42,28:12
42,32:16
42,33:10
42,38:17
42,39:8
42,40:3
42,43:11
42,44:9
43,2:6
43,4:2
43,8:7
43,10:4
43,25:4
43,32:5
43,38:6
43,44:2
43,45:4
44,2:8
44,4:4
44,5:3
44,6:3
44,7:1
44,10:2
44,16:7
44,18:1
44,19:3
44,22:5
44,23:5
44,24:1
44,25:2
44,26:6
44,27:9
44,28:3
44,29:7
44,30:1
44,31:6
44,32:7
44,33:1
44,34:1
44,35:9
44,36:3
44,37:7
44,38:8
44,39:1
44,40:6
44,41:7
44,42:9
44,43:2
44,45:2
45,2:10
45,4:6
45,38:10
45,46:7
45,48:3
46,2:3
46,4:1
46,10:7
46,25:7
46,38:3
46,47:9
46,48:10
46,49:7
47,2:12
47,4:8
47,10:2
47,25:2
47,38:12
47,48:1
47,49:2
47,50:9
47,51:6
48,2:13
48,4:9
48,10:3
48,25:3
48,38:13
48,46:10
48,47:1
48,49:3
48,50:10
48,51:7
48,52:1
48,53:7
48,54:2
48,55:9
48,56:12
49,2:10
49,4:6
49,38:10
49,46:7
49,47:2
49,48:3
49,50:7
49,51:4
49,52:4
49,53:4
49,54:5
49,55:6
49,56:9
49,58:7
50,2:3
50,4:1
50,10:7
50,25:7
50,38:3
50,47:9
50,48:10
50,49:7
50,51:3
50,52:11
50,53:3
50,54:12
50,55:1
50,56:2
50,57:7
50,58:14
51,2:6
51,4:2
51,10:4
51,25:4
51,38:6
51,48:7
51,49:4
51,50:3
51,52:8
52,4:10
52,10:4
52,48:1
52,49:4
52,50:11
52,53:8
53,4:2
53,10:4
53,48:7
53,49:4
53,50:3
53,54:9
54,4:11
54,10:5
54,48:2
54,49:5
54,50:12
54,55:11
54,56:14
55,10:6
55,49:6
55,50:1
55,56:3
55,57:6
56,4:3
56,10:9
56,48:12
56,49:9
56,50:2
56,55:3
56,57:9
57,4:6
57,50:7
57,58:7
58,4:13
58,10:7

<setup times backward>
1,1:18
1,2:11
1,3:21
1,4:15
1,5:16
1,6:22
1,7:18
1,8:24
1,10:21
1,12:19
1,16:26
1,18:20
1,19:16
1,22:24
1,23:14
1,24:20
1,27:28
1,28:16
1,30:18
1,32:12
1,33:18
1,34:18
1,35:28
2,1:25
2,2:18
2,3:28
2,4:22
2,5:23
2,6:29
2,7:25
2,8:31
2,9:21
2,10:28
2,11:33
2,12:26
2,13:23
2,14:20
2,15:34
2,16:33
2,17:18
2,18:27
2,19:23
2,20:20
2,21:20
2,22:31
2,23:21
2,24:27
2,26:32
2,27:35
2,28:23
2,29:33
2,30:25
2,31:20
2,32:19
2,33:25
2,34:25
2,35:35
2,36:23
2,37:33
2,39:27
2,40:32
2,41:33
2,42:35
2,43:24
2,44:26
2,45:28
2,46:21
2,47:30
2,48:31
2,49:28
2,50:21
2,51:24
3,1:15
3,2:8
3,3:18
3,4:12
3,5:13
3,6:19
3,7:15
3,8:21
3,9:11
3,10:18
3,11:23
3,12:16
3,13:13
3,14:10
3,15:24
3,16:23
3,17:8
3,18:17
3,19:13
3,20:10
3,23:11
3,24:17
3,25:18
3,28:13
3,32:9
3,33:15
3,35:25
4,1:21
4,2:14
4,3:24
4,4:18
4,5:19
4,6:25
4,7:21
4,8:27
4,9:17
4,11:29
4,12:22
4,13:19
4,14:16
4,15:30
4,16:29
4,17:14
4,18:23
4,19:19
4,20:16
4,21:16
4,22:27
4,23:17
4,24:23
4,25:24
4,26:28
4,27:31
4,28:19
4,29:29
4,30:21
4,31:16
4,32:15
4,33:21
4,34:21
4,35:31
4,36:19
4,37:29
4,38:14
4,39:23
4,40:28
4,41:29
4,42:31
4,43:20
4,44:22
4,45:24
4,46:17
4,47:26
4,48:27
4,49:24
4,50:17
4,51:20
4,52:28
4,53:20
4,54:29
4,55:18
4,56:15
4,57:24
4,58:31
5,1:20
5,2:13
5,3:23
5,4:17
5,5:18
5,6:24
5,7:20
5,8:26
5,9:16
5,10:23
5,11:28
5,12:21
5,13:18
5,14:15
5,15:29
5,16:28
5,17:13
5,18:22
5,19:18
5,20:15
5,21:15
5,22:26
5,23:16
5,24:22
5,25:23
5,26:27
5,27:30
5,28:18
5,29:28
5,30:20
5,31:15
5,32:14
5,33:20
5,34:20
5,35:30
5,44:21
6,1:14
6,2:7
6,3:17
6,4:11
6,5:12
6,6:18
6,7:14
6,8:20
6,9:10
6,10:17
6,11:22
6,12:15
6,13:12
6,14:9
6,15:23
6,16:22
6,17:7
6,18:16
6,19:12
6,20:9
6,21:9
6,22:20
6,25:17
6,26:21
6,27:24
6,28:12
6,29:22
6,30:14
6,32:8
6,33:14
6,34:14
6,35:24
6,44:15
7,1:18
7,2:11
7,3:21
7,4:15
7,5:16
7,6:22
7,7:18
7,8:24
7,9:14
7,10:21
7,11:26
7,12:19
7,13:16
7,14:13
7,15:27
7,16:26
7,17:11
7,18:20
7,19:16
7,20:13
7,21:13
7,22:24
7,23:14
7,24:20
7,25:21
7,26:25
7,27:28
7,28:16
7,29:26
7,30:18
7,31:13
7,32:12
7,33:18
7,34:18
7,35:28
7,36:16
7,37:26
7,38:11
7,39:20
7,40:25
7,41:26
7,42:28
7,44:19
8,1:12
8,2:5
8,3:15
8,4:9
8,5:10
8,6:16
8,7:12
8,8:18
8,9:8
8,10:15
8,11:20
8,12:13
8,13:10
8,14:7
8,15:21
8,16:20
8,17:5
8,18:14
8,19:10
8,20:7
8,21:7
8,22:18
8,23:8
8,24:14
8,25:15
8,26:19
8,27:22
8,28:10
8,29:20
8,30:12
8,31:7
8,32:6
8,33:12
8,34:12
8,35:22
8,36:10
8,37:20
8,38:5
8,39:14
8,40:19
8,41:20
8,42:22
8,43:11
9,1:22
9,2:15
9,3:25
9,4:19
9,5:20
9,6:26
9,7:22
9,8:28
9,9:18
9,10:25
9,12:23
9,16:30
9,18:24
9,19:20
9,22:28
9,23:18
9,24:24
9,27:32
9,28:20
9,30:22
9,32:16
9,33:22
9,34:22
9,35:32
10,1:15
10,2:8
10,3:18
10,4:12
10,5:13
10,6:19
10,7:15
10,8:21
10,9:11
10,10:18
10,11:23
10,12:16
10,13:13
10,14:10
10,15:24
10,16:23
10,17:8
10,18:17
10,19:13
10,20:10
10,21:10
10,22:21
10,23:11
10,24:17
10,25:18
10,26:22
10,27:25
10,28:13
10,29:23
10,30:15
10,31:10
10,32:9
10,33:15
10,34:15
10,35:25
10,36:13
10,37:23
10,38:8
10,39:17
10,40:22
10,41:23
10,42:25
10,43:14
10,44:16
10,45:18
10,46:11
10,47:20
10,48:21
10,49:18
10,50:11
10,51:14
10,52:22
10,53:14
10,54:23
10,55:12
10,56:9
10,57:18
10,58:25
11,1:10
11,2:3
11,3:13
11,4:7
11,5:8
11,6:14
11,7:10
11,8:16
11,9:6
11,10:13
11,11:18
11,12:11
11,16:18
11,18:12
11,19:8
11,22:16
11,23:6
11,24:12
11,27:20
11,28:8
11,30:10
11,32:4
11,33:10
11,34:10
11,35:20
12,1:17
12,2:10
12,3:20
12,4:14
12,5:15
12,6:21
12,7:17
12,8:23
12,9:13
12,10:20
12,11:25
12,12:18
12,13:15
12,14:12
12,15:26
12,16:25
12,18:19
12,19:15
12,22:23
12,23:13
12,24:19
12,27:27
12,28:15
12,30:17
12,32:11
12,33:17
12,34:17
12,35:27
13,1:20
13,2:13
13,3:23
13,4:17
13,5:18
13,6:24
13,7:20
13,8:26
13,9:16
13,10:23
13,11:28
13,12:21
13,13:18
13,14:15
13,15:29
13,16:28
13,18:22
13,19:18
13,22:26
13,23:16
13,24:22
13,27:30
13,28:18
13,30:20
13,32:14
13,33:20
13,34:20
13,35:30
14,1:23
14,2:16
14,3:26
14,4:20
14,5:21
14,6:27
14,7:23
14,8:29
14,9:19
14,10:26
14,11:31
14,12:24
14,13:21
14,14:18
14,15:32
14,16:31
14,18:25
14,19:21
14,22:29
14,23:19
14,24:25
14,27:33
14,28:21
14,30:23
14,32:17
14,33:23
14,34:23
14,35:33
15,1:9
15,2:2
15,3:12
15,4:6
15,5:7
15,6:13
15,7:9
15,8:15
15,9:5
15,10:12
15,11:17
15,12:10
15,13:7
15,14:4
15,15:18
15,16:17
15,18:11
15,19:7
15,22:15
15,23:5
15,24:11
15,27:19
15,28:7
15,30:9
15,32:3
15,33:9
15,34:9
15,35:19
16,1:10
16,2:3
16,3:13
16,4:7
16,5:8
16,6:14
16,7:10
16,8:16
16,9:6
16,10:13
16,11:18
16,12:11
16,13:8
16,14:5
16,15:19
16,16:18
16,17:3
16,20:5
16,21:5
16,22:16
16,24:12
16,25:13
16,26:17
16,27:20
16,28:8
16,29:18
16,30:10
16,32:4
16,33:10
16,34:10
16,35:20
16,44:11
17,1:25
17,2:18
17,3:28
17,4:22
17,5:23
17,6:29
17,7:25
17,8:31
17,9:21
17,10:28
17,11:33
17,12:26
17,13:23
17,14:20
17,15:34
17,16:33
17,17:18
17,18:27
17,19:23
17,22:31
17,23:21
17,24:27
17,27:35
17,28:23
17,30:25
17,32:19
17,33:25
17,34:25
17,35:35
18,1:16
18,2:9
18,3:19
18,4:13
18,5:14
18,6:20
18,7:16
18,8:22
18,9:12
18,10:19
18,11:24
18,12:17
18,13:14
18,14:11
18,15:25
18,16:24
18,17:9
18,18:18
18,20:11
18,21:11
18,22:22
18,24:18
18,25:19
18,26:23
18,27:26
18,28:14
18,29:24
18,30:16
18,32:10
18,33:16
18,34:16
18,35:26
18,44:17
19,1:20
19,2:13
19,3:23
19,4:17
19,5:18
19,6:24
19,7:20
19,8:26
19,9:16
19,10:23
19,11:28
19,12:21
19,13:18
19,14:15
19,15:29
19,16:28
19,17:13
19,18:22
19,19:18
19,20:15
19,21:15
19,22:26
19,24:22
19,25:23
19,26:27
19,27:30
19,28:18
19,29:28
19,30:20
19,32:14
19,33:20
19,34:20
19,35:30
19,44:21
20,1:23
20,2:16
20,3:26
20,4:20
20,5:21
20,6:27
20,7:23
20,8:29
20,9:19
20,10:26
20,11:31
20,12:24
20,13:21
20,14:18
20,15:32
20,16:31
20,17:16
20,18:25
20,19:21
20,20:18
20,22:29
20,23:19
20,24:25
20,27:33
20,28:21
20,30:23
20,32:17
20,33:23
20,34:23
20,35:33
21,1:23
21,2:16
21,3:26
21,4:20
21,5:21
21,6:27
21,7:23
21,8:29
21,9:19
21,10:26
21,11:31
21,12:24
21,13:21
21,14:18
21,15:32
21,16:31
21,17:16
21,18:25
21,19:21
21,20:18
21,21:18
21,22:29
21,23:19
21,24:25
21,25:26
21,27:33
21,28:21
21,30:23
21,32:17
21,33:23
21,34:23
21,35:33
22,1:12
22,2:5
22,3:15
22,4:9
22,5:10
22,6:16
22,7:12
22,8:18
22,9:8
22,10:15
22,11:20
22,12:13
22,13:10
22,14:7
22,15:21
22,16:20
22,17:5
22,18:14
22,19:10
22,20:7
22,21:7
22,22:18
22,23:8
22,24:14
22,25:15
22,26:19
22,28:10
22,29:20
22,31:7
22,32:6
22,33:12
22,35:22
22,44:13
23,1:22
23,2:15
23,3:25
23,4:19
23,5:20
23,6:26
23,7:22
23,8:28
23,9:18
23,10:25
23,11:30
23,12:23
23,13:20
23,14:17
23,15:31
23,16:30
23,17:15
23,18:24
23,19:20
23,20:17
23,21:17
23,22:28
23,23:18
23,24:24
23,25:25
23,26:29
23,27:32
23,28:20
23,29:30
23,30:22
23,32:16
23,33:22
23,34:22
23,35:32
23,44:23
24,1:16
24,2:9
24,3:19
24,4:13
24,5:14
24,6:20
24,7:16
24,8:22
24,9:12
24,10:19
24,11:24
24,12:17
24,13:14
24,14:11
24,15:25
24,16:24
24,17:9
24,18:18
24,19:14
24,20:11
24,21:11
24,22:22
24,23:12
24,24:18
24,25:19
24,26:23
24,27:26
24,28:14
24,29:24
24,30:16
24,32:10
24,33:16
24,34:16
24,35:26
24,44:17
25,1:15
25,2:8
25,3:18
25,4:12
25,5:13
25,6:19
25,7:15
25,8:21
25,9:11
25,10:18
25,11:23
25,12:16
25,13:13
25,14:10
25,15:24
25,16:23
25,17:8
25,18:17
25,19:13
25,20:10
25,21:10
25,22:21
25,23:11
25,24:17
25,25:18
25,26:22
25,27:25
25,28:13
25,29:23
25,30:15
25,31:10
25,32:9
25,33:15
25,34:15
25,35:25
25,36:13
25,37:23
25,39:17
25,40:22
25,41:23
25,42:25
25,43:14
25,44:16
25,45:18
25,46:11
25,47:20
25,48:21
25,49:18
25,50:11
25,51:14
26,1:11
26,2:4
26,3:14
26,4:8
26,5:9
26,6:15
26,7:11
26,8:17
26,9:7
26,10:14
26,11:19
26,12:12
26,13:9
26,14:6
26,15:20
26,16:19
26,17:4
26,18:13
26,19:9
26,20:6
26,21:6
26,22:17
26,23:7
26,24:13
26,25:14
26,26:18
26,27:21
26,28:9
26,30:11
26,32:5
26,33:11
26,34:11
26,35:21
26,44:12
27,1:8
27,2:1
27,3:11
27,4:5
27,5:6
27,6:12
27,7:8
27,8:14
27,9:4
27,10:11
27,11:16
27,12:9
27,13:6
27,14:3
27,15:17
27,16:16
27,17:1
27,18:10
27,19:6
27,20:3
27,21:3
27,22:14
27,23:4
27,24:10
27,25:11
27,26:15
27,27:18
27,28:6
27,29:16
27,31:3
27,32:2
27,33:8
27,35:18
27,44:9
28,1:20
28,2:13
28,3:23
28,4:17
28,5:18
28,6:24
28,7:20
28,8:26
28,9:16
28,10:23
28,11:28
28,12:21
28,13:18
28,14:15
28,15:29
28,16:28
28,17:13
28,18:22
28,19:18
28,20:15
28,21:15
28,22:26
28,23:16
28,24:22
28,25:23
28,26:27
28,27:30
28,28:18
28,29:28
28,30:20
28,31:15
28,34:20
28,36:18
28,37:28
28,38:13
28,39:22
28,40:27
28,41:28
28,42:30
28,44:21
29,1:10
29,2:3
29,3:13
29,4:7
29,5:8
29,6:14
29,7:10
29,8:16
29,9:6
29,10:13
29,11:18
29,12:11
29,13:8
29,14:5
29,15:19
29,16:18
29,17:3
29,18:12
29,19:8
29,20:5
29,21:5
29,22:16
29,23:6
29,24:12
29,25:13
29,26:17
29,27:20
29,28:8
29,29:18
29,30:10
29,32:4
29,33:10
29,34:10
29,35:20
29,44:11
30,1:18
30,2:11
30,3:21
30,4:15
30,5:16
30,6:22
30,7:18
30,8:24
30,9:14
30,10:21
30,11:26
30,12:19
30,13:16
30,14:13
30,15:27
30,16:26
30,17:11
30,18:20
30,19:16
30,20:13
30,21:13
30,22:24
30,23:14
30,24:20
30,25:21
30,26:25
30,27:28
30,28:16
30,29:26
30,30:18
30,31:13
30,32:12
30,33:18
30,35:28
30,44:19
31,1:23
31,2:16
31,3:26
31,4:20
31,5:21
31,6:27
31,7:23
31,8:29
31,9:19
31,10:26
31,11:31
31,12:24
31,13:21
31,14:18
31,15:32
31,16:31
31,17:16
31,18:25
31,19:21
31,20:18
31,21:18
31,22:29
31,23:19
31,24:25
31,25:26
31,26:30
31,27:33
31,28:21
31,29:31
31,30:23
31,31:18
31,32:17
31,33:23
31,34:23
31,35:33
31,44:24
32,1:24
32,2:17
32,3:27
32,4:21
32,5:22
32,6:28
32,7:24
32,8:30
32,9:20
32,10:27
32,11:32
32,12:25
32,13:22
32,14:19
32,15:33
32,16:32
32,17:17
32,18:26
32,19:22
32,20:19
32,21:19
32,22:30
32,23:20
32,24:26
32,25:27
32,26:31
32,27:34
32,28:22
32,29:32
32,30:24
32,31:19
32,32:18
32,33:24
32,34:24
32,35:34
32,36:22
32,37:32
32,38:17
32,39:26
32,40:31
32,41:32
32,42:34
32,43:23
32,44:25
33,1:18
33,2:11
33,3:21
33,4:15
33,5:16
33,6:22
33,7:18
33,8:24
33,9:14
33,10:21
33,11:26
33,12:19
33,13:16
33,14:13
33,15:27
33,16:26
33,17:11
33,18:20
33,19:16
33,20:13
33,21:13
33,22:24
33,23:14
33,24:20
33,25:21
33,26:25
33,27:28
33,28:16
33,29:26
33,30:18
33,31:13
33,32:12
33,33:18
33,34:18
33,36:16
33,37:26
33,38:11
33,39:20
33,40:25
33,41:26
33,42:28
33,44:19
34,1:18
34,2:11
34,3:21
34,4:15
34,5:16
34,6:22
34,7:18
34,8:24
34,9:14
34,10:21
34,11:26
34,12:19
34,13:16
34,14:13
34,15:27
34,16:26
34,17:11
34,18:20
34,19:16
34,20:13
34,21:13
34,22:24
34,23:14
34,24:20
34,25:21
34,26:25
34,27:28
34,28:16
34,29:26
34,30:18
34,31:13
34,32:12
34,33:18
34,34:18
34,35:28
34,44:19
35,1:8
35,2:1
35,3:11
35,4:5
35,5:6
35,6:12
35,7:8
35,8:14
35,9:4
35,10:11
35,11:16
35,12:9
35,13:6
35,14:3
35,15:17
35,16:16
35,17:1
35,18:10
35,19:6
35,20:3
35,21:3
35,22:14
35,23:4
35,24:10
35,25:11
35,26:15
35,27:18
35,28:6
35,29:16
35,30:8
35,31:3
35,32:2
35,33:8
35,34:8
35,35:18
35,36:6
35,37:16
35,38:1
35,39:10
35,40:15
35,41:16
35,42:18
35,44:9
36,1:20
36,2:13
36,3:23
36,4:17
36,5:18
36,6:24
36,7:20
36,8:26
36,9:16
36,10:23
36,11:28
36,12:21
36,13:18
36,14:15
36,15:29
36,16:28
36,17:13
36,18:22
36,19:18
36,20:15
36,21:15
36,22:26
36,23:16
36,24:22
36,25:23
36,26:27
36,27:30
36,28:18
36,29:28
36,30:20
36,31:15
36,32:14
36,33:20
36,34:20
36,35:30
36,36:18
36,44:21
37,1:10
37,2:3
37,3:13
37,4:7
37,5:8
37,6:14
37,7:10
37,8:16
37,9:6
37,10:13
37,11:18
37,12:11
37,13:8
37,14:5
37,15:19
37,16:18
37,17:3
37,18:12
37,19:8
37,20:5
37,21:5
37,22:16
37,23:6
37,24:12
37,25:13
37,26:17
37,27:20
37,28:8
37,29:18
37,30:10
37,31:5
37,32:4
37,33:10
37,34:10
37,35:20
37,36:8
37,37:18
37,38:3
37,44:11
38,1:25
38,2:18
38,3:28
38,4:22
38,5:23
38,6:29
38,7:25
38,8:31
38,9:21
38,10:28
38,11:33
38,12:26
38,13:23
38,14:20
38,15:34
38,16:33
38,17:18
38,18:27
38,19:23
38,20:20
38,21:20
38,22:31
38,23:21
38,24:27
38,25:28
38,26:32
38,27:35
38,28:23
38,29:33
38,30:25
38,31:20
38,32:19
38,33:25
38,34:25
38,35:35
38,36:23
38,37:33
38,38:18
38,39:27
38,40:32
38,41:33
38,42:35
38,43:24
38,44:26
38,45:28
38,46:21
38,47:30
38,48:31
38,49:28
38,50:21
38,51:24
39,1:16
39,2:9
39,3:19
39,4:13
39,5:14
39,6:20
39,7:16
39,8:22
39,9:12
39,10:19
39,11:24
39,12:17
39,13:14
39,14:11
39,15:25
39,16:24
39,17:9
39,18:18
39,19:14
39,20:11
39,21:11
39,22:22
39,23:12
39,24:18
39,25:19
39,26:23
39,27:26
39,28:14
39,29:24
39,30:16
39,31:11
39,32:10
39,33:16
39,34:16
39,35:26
39,36:14
39,37:24
39,38:9
39,39:18
39,40:23
39,41:24
39,42:26
39,44:17
40,1:11
40,2:4
40,3:14
40,4:8
40,5:9
40,6:15
40,7:11
40,8:17
40,9:7
40,10:14
40,11:19
40,12:12
40,13:9
40,14:6
40,15:20
40,16:19
40,17:4
40,18:13
40,19:9
40,20:6
40,21:6
40,22:17
40,23:7
40,24:13
40,25:14
40,26:18
40,27:21
40,28:9
40,29:19
40,30:11
40,31:6
40,32:5
40,33:11
40,34:11
40,35:21
40,36:9
40,37:19
40,38:4
40,39:13
40,40:18
40,41:19
40,42:21
40,44:12
41,1:10
41,2:3
41,3:13
41,4:7
41,5:8
41,6:14
41,7:10
41,8:16
41,9:6
41,10:13
41,11:18
41,12:11
41,13:8
41,14:5
41,15:19
41,16:18
41,17:3
41,18:12
41,19:8
41,20:5
41,21:5
41,22:16
41,23:6
41,24:12
41,25:13
41,26:17
41,27:20
41,28:8
41,29:18
41,30:10
41,31:5
41,32:4
41,33:10
41,34:10
41,35:20
41,36:8
41,37:18
41,38:3
41,39:12
41,40:17
41,41:18
41,44:11
42,1:8
42,2:1
42,3:11
42,4:5
42,5:6
42,6:12
42,7:8
42,8:14
42,9:4
42,10:11
42,11:16
42,12:9
42,13:6
42,14:3
42,15:17
42,16:16
42,17:1
42,18:10
42,19:6
42,20:3
42,21:3
42,22:14
42,23:4
42,24:10
42,25:11
42,26:15
42,27:18
42,28:6
42,29:16
42,30:8
42,31:3
42,32:2
42,33:8
42,34:8
42,35:18
42,36:6
42,37:16
42,38:1
42,39:10
42,40:15
42,41:16
42,42:18
42,44:9
43,1:19
43,2:12
43,3:22
43,4:16
43,5:17
43,6:23
43,7:19
43,8:25
43,9:15
43,10:22
43,11:27
43,12:20
43,13:17
43,14:14
43,15:28
43,16:27
43,17:12
43,18:21
43,19:17
43,20:14
43,21:14
43,22:25
43,23:15
43,24:21
43,25:22
43,26:26
43,27:29
43,28:17
43,29:27
43,30:19
43,31:14
43,32:13
43,33:19
43,34:19
43,35:29
43,36:17
43,37:27
43,38:12
43,39:21
43,40:26
43,41:27
43,42:29
43,43:18
43,44:20
44,1:17
44,2:10
44,3:20
44,4:14
44,5:15
44,6:21
44,7:17
44,8:23
44,9:13
44,10:20
44,11:25
44,12:18
44,13:15
44,14:12
44,15:26
44,16:25
44,17:10
44,18:19
44,19:15
44,20:12
44,21:12
44,22:23
44,23:13
44,24:19
44,25:20
44,26:24
44,27:27
44,28:15
44,29:25
44,30:17
44,31:12
44,32:11
44,33:17
44,34:17
44,35:27
44,36:15
44,37:25
44,38:10
44,39:19
44,40:24
44,41:25
44,42:27
44,43:16
44,44:18
45,1:15
45,2:8
45,3:18
45,4:12
45,5:13
45,6:19
45,7:15
45,8:21
45,9:11
45,10:18
45,11:23
45,12:16
45,13:13
45,14:10
45,15:24
45,16:23
45,17:8
45,18:17
45,19:13
45,20:10
45,21:10
45,22:21
45,23:11
45,24:17
45,25:18
45,26:22
45,27:25
45,28:13
45,29:23
45,30:15
45,31:10
45,32:9
45,33:15
45,34:15
45,35:25
45,36:13
45,37:23
45,38:8
45,39:17
45,40:22
45,41:23
45,42:25
45,43:14
45,44:16
45,45:18
46,1:22
46,2:15
46,3:25
46,4:19
46,5:20
46,6:26
46,7:22
46,8:28
46,9:18
46,10:25
46,11:30
46,12:23
46,13:20
46,14:17
46,15:31
46,16:30
46,17:15
46,18:24
46,19:20
46,20:17
46,21:17
46,22:28
46,23:18
46,24:24
46,25:25
46,26:29
46,27:32
46,28:20
46,29:30
46,30:22
46,31:17
46,32:16
46,33:22
46,34:22
46,35:32
46,36:20
46,37:30
46,38:15
46,39:24
46,40:29
46,41:30
46,42:32
46,43:21
46,44:23
46,45:25
46,46:18
46,48:28
46,49:25
47,1:13
47,2:6
47,3:16
47,4:10
47,5:11
47,6:17
47,7:13
47,8:19
47,9:9
47,10:16
47,11:21
47,12:14
47,13:11
47,14:8
47,15:22
47,16:21
47,17:6
47,18:15
47,19:11
47,20:8
47,21:8
47,22:19
47,23:9
47,24:15
47,25:16
47,26:20
47,27:23
47,28:11
47,29:21
47,30:13
47,31:8
47,32:7
47,33:13
47,34:13
47,35:23
47,36:11
47,37:21
47,38:6
47,39:15
47,40:20
47,41:21
47,42:23
47,43:12
47,44:14
47,45:16
47,46:9
47,47:18
47,48:19
47,49:16
47,50:9
48,1:12
48,2:5
48,3:15
48,4:9
48,5:10
48,6:16
48,7:12
48,8:18
48,9:8
48,10:15
48,11:20
48,12:13
48,13:10
48,14:7
48,15:21
48,16:20
48,17:5
48,18:14
48,19:10
48,20:7
48,21:7
48,22:18
48,23:8
48,24:14
48,25:15
48,26:19
48,27:22
48,28:10
48,29:20
48,30:12
48,31:7
48,32:6
48,33:12
48,34:12
48,35:22
48,36:10
48,37:20
48,38:5
48,39:14
48,40:19
48,41:20
48,42:22
48,43:11
48,44:13
48,45:15
48,46:8
48,47:17
48,48:18
48,49:15
48,50:8
48,51:11
48,52:19
48,53:11
48,54:20
48,56:6
49,1:15
49,2:8
49,3:18
49,4:12
49,5:13
49,6:19
49,7:15
49,8:21
49,9:11
49,10:18
49,11:23
49,12:16
49,13:13
49,14:10
49,15:24
49,16:23
49,17:8
49,18:17
49,19:13
49,20:10
49,21:10
49,22:21
49,23:11
49,24:17
49,25:18
49,26:22
49,27:25
49,28:13
49,29:23
49,30:15
49,31:10
49,32:9
49,33:15
49,34:15
49,35:25
49,36:13
49,37:23
49,38:8
49,39:17
49,40:22
49,41:23
49,42:25
49,43:14
49,44:16
49,45:18
49,46:11
49,47:20
49,48:21
49,49:18
49,50:11
49,51:14
49,52:22
49,53:14
49,54:23
49,55:12
49,56:9
49,57:18
50,1:22
50,2:15
50,3:25
50,4:19
50,5:20
50,6:26
50,7:22
50,8:28
50,9:18
50,10:25
50,11:30
50,12:23
50,13:20
50,14:17
50,15:31
50,16:30
50,17:15
50,18:24
50,19:20
50,20:17
50,21:17
50,22:28
50,23:18
50,24:24
50,25:25
50,26:29
50,27:32
50,28:20
50,29:30
50,30:22
50,31:17
50,32:16
50,33:22
50,34:22
50,35:32
50,36:20
50,37:30
50,38:15
50,39:24
50,40:29
50,41:30
50,42:32
50,43:21
50,44:23
50,45:25
50,46:18
50,47:27
50,48:28
50,49:25
50,50:18
50,51:21
50,52:29
50,53:21
50,54:30
50,55:19
50,56:16
50,57:25
51,1:19
51,2:12
51,3:22
51,4:16
51,5:17
51,6:23
51,7:19
51,8:25
51,9:15
51,10:22
51,11:27
51,12:20
51,13:17
51,14:14
51,15:28
51,16:27
51,17:12
51,18:21
51,19:17
51,20:14
51,21:14
51,22:25
51,23:15
51,24:21
51,25:22
51,26:26
51,27:29
51,28:17
51,29:27
51,30:19
51,31:14
51,32:13
51,33:19
51,34:19
51,35:29
51,36:17
51,37:27
51,38:12
51,39:21
51,40:26
51,41:27
51,42:29
51,43:18
51,44:20
51,45:22
51,46:15
51,47:24
51,48:25
51,49:22
51,50:15
51,51:18
52,1:11
52,2:4
52,3:14
52,4:8
52,5:9
52,6:15
52,7:11
52,8:17
52,9:7
52,10:14
52,11:19
52,12:12
52,13:9
52,14:6
52,15:20
52,16:19
52,17:4
52,18:13
52,19:9
52,20:6
52,21:6
52,22:17
52,23:7
52,24:13
52,25:14
52,26:18
52,27:21
52,28:9
52,29:19
52,30:11
52,31:6
52,32:5
52,33:11
52,34:11
52,35:21
52,36:9
52,37:19
52,38:4
52,39:13
52,40:18
52,41:19
52,42:21
52,43:10
52,44:12
52,45:14
52,46:7
52,47:16
52,48:17
52,49:14
52,50:7
52,51:10
52,52:18
53,1:19
53,2:12
53,3:22
53,4:16
53,5:17
53,6:23
53,7:19
53,8:25
53,9:15
53,10:22
53,11:27
53,12:20
53,13:17
53,14:14
53,15:28
53,16:27
53,17:12
53,18:21
53,19:17
53,20:14
53,21:14
53,22:25
53,23:15
53,24:21
53,25:22
53,26:26
53,27:29
53,28:17
53,29:27
53,30:19
53,31:14
53,32:13
53,33:19
53,34:19
53,35:29
53,36:17
53,37:27
53,38:12
53,39:21
53,40:26
53,41:27
53,42:29
53,43:18
53,44:20
53,45:22
53,46:15
53,47:24
53,48:25
53,49:22
53,50:15
53,51:18
53,52:26
53,53:18
54,1:10
54,2:3
54,3:13
54,4:7
54,5:8
54,6:14
54,7:10
54,8:16
54,9:6
54,10:13
54,11:18
54,12:11
54,13:8
54,14:5
54,15:19
54,16:18
54,17:3
54,18:12
54,19:8
54,20:5
54,21:5
54,22:16
54,23:6
54,24:12
54,25:13
54,26:17
54,27:20
54,28:8
54,29:18
54,30:10
54,31:5
54,32:4
54,33:10
54,34:10
54,35:20
54,36:8
54,37:18
54,38:3
54,39:12
54,40:17
54,41:18
54,42:20
54,43:9
54,44:11
54,45:13
54,46:6
54,47:15
54,48:16
54,49:13
54,50:6
54,51:9
54,52:17
54,53:9
54,54:18
55,1:21
55,2:14
55,3:24
55,4:18
55,5:19
55,6:25
55,7:21
55,8:27
55,9:17
55,10:24
55,11:29
55,12:22
55,13:19
55,14:16
55,15:30
55,16:29
55,17:14
55,18:23
55,19:19
55,20:16
55,21:16
55,22:27
55,23:17
55,24:23
55,25:24
55,26:28
55,27:31
55,28:19
55,29:29
55,30:21
55,31:16
55,32:15
55,33:21
55,34:21
55,35:31
55,36:19
55,37:29
55,38:14
55,39:23
55,40:28
55,41:29
55,42:31
55,43:20
55,44:22
55,45:24
55,46:17
55,47:26
55,48:27
55,49:24
55,50:17
55,51:20
55,52:28
55,53:20
55,54:29
55,55:18
55,56:15
56,1:24
56,2:17
56,3:27
56,4:21
56,5:22
56,6:28
56,7:24
56,8:30
56,9:20
56,10:27
56,11:32
56,12:25
56,13:22
56,14:19
56,15:33
56,16:32
56,17:17
56,18:26
56,19:22
56,20:19
56,21:19
56,22:30
56,23:20
56,24:26
56,25:27
56,26:31
56,27:34
56,28:22
56,29:32
56,30:24
56,31:19
56,32:18
56,33:24
56,34:24
56,35:34
56,36:22
56,37:32
56,38:17
56,39:26
56,40:31
56,41:32
56,42:34
56,43:23
56,44:25
56,45:27
56,46:20
56,47:29
56,48:30
56,49:27
56,50:20
56,51:23
56,52:31
56,53:23
56,54:32
56,55:21
56,56:18
57,1:15
57,2:8
57,3:18
57,4:12
57,5:13
57,6:19
57,7:15
57,8:21
57,9:11
57,10:18
57,11:23
57,12:16
57,13:13
57,14:10
57,15:24
57,16:23
57,17:8
57,18:17
57,19:13
57,20:10
57,21:10
57,22:21
57,23:11
57,24:17
57,25:18
57,26:22
57,27:25
57,28:13
57,29:23
57,30:15
57,31:10
57,32:9
57,33:15
57,34:15
57,35:25
57,36:13
57,37:23
57,38:8
57,39:17
57,40:22
57,41:23
57,42:25
57,43:14
57,44:16
57,45:18
57,46:11
57,47:20
57,48:21
57,49:18
57,50:11
57,51:14
57,52:22
57,53:14
57,54:23
57,55:12
57,56:9
57,57:18
58,1:8
58,2:1
58,3:11
58,4:5
58,5:6
58,6:12
58,7:8
58,8:14
58,9:4
58,10:11
58,11:16
58,12:9
58,13:6
58,14:3
58,15:17
58,16:16
58,17:1
58,18:10
58,19:6
58,20:3
58,21:3
58,22:14
58,23:4
58,24:10
58,25:11
58,26:15
58,27:18
58,28:6
58,29:16
58,30:8
58,31:3
58,32:2
58,33:8
58,34:8
58,35:18
58,36:6
58,37:16
58,38:1
58,39:10
58,40:15
58,41:16
58,42:18
58,43:7
58,44:9
58,45:11
58,46:4
58,47:13
58,48:14
58,49:11
58,50:4
58,51:7
58,52:15
58,53:7
58,54:16
58,55:5
58,56:2
58,57:11
58,58:18

<end>

<optimal SALBP-1 value>
23


<rand seed>
467321153

